0000000000000000
0000000000000000
0000000000000000
0000000011100000
0000011111101000
0000000000011000
0000000000001000
0000000000001110
0000000000000110
0000000000000000
0000000000001000
0000001111000000
0000011111111000
0000000000010000
0000000000000000
0000000000000000
